Results/Experiment 1 Results/Existing Benchmark/RES_100/i-100-100-7.txt
solutions: 0 nodes: 2  modelTime: 135  solveTime: 30  totalTime: 176  modelSize: 8381  readTime: 11 matchingSize: 0
