Results/Experiment 2 Results/Existing Benchmark/i-100-100-7.lp
clingo version 5.4.0
Reading from tempSRTISolver.lp ...
Solving...
UNSATISFIABLE

Models       : 0
Calls        : 1
Time         : 91.510s (Solving: 11.17s 1st Model: 0.00s Unsat: 11.17s)
CPU Time     : 91.484s
